100
1000
300
299
298
295
293
292
291
289
285
280
279
279
277
275
271
269
265
263
260
259
259
256
251
248
248
247
246
245
243
242
240
239
239
239
233
233
232
232
230
229
225
221
220
219
219
217
216
215
214
213
212
206
206
195
195
193
189
189
189
188
187
186
181
177
174
171
170
169
168
168
166
166
165
165
150
149
148
148
148
147
146
144
142
141
140
139
139
137
134
131
130
128
126
126
120
117
113
106
104
103
